WARNING: for repeatability, setting FPU to use double precision
============================[ Problem Statistics ]=============================
|                                                                             |
|  Number of variables:            50                                         |
|  Number of clauses:             218                                         |
|  Parse time:                   0.00 s                                       |
|                                                                             |
============================[ Search Statistics ]==============================
| Conflicts |          ORIGINAL         |          LEARNT          | Progress |
|           |    Vars  Clauses Literals |    Limit  Clauses Lit/Cl |          |
===============================================================================
===============================================================================
restarts              : 1
conflicts             : 21             (100478 /sec)
decisions             : 31             (0.00 % random) (148325 /sec)
propagations          : 330            (1578947 /sec)
conflict literals     : 105            (11.02 % deleted)
Memory used           : 20.00 MB
CPU time              : 0.000209 s

SATISFIABLE
